nApps = 203
nRes = 9
nActs = 382
nNetworks = 6

assignmentToResources = [2,1,3,2,3,2,2,2,2,3,2,1,3,1,2,2,2,3,3,2,3,2,3,2,2,1,2,3,1,3,1,3,2,2,3,1,3,3,1,2,1,3,3,2,3,2,3,3,3,1,2,3,1,1,2,3,1,2,3,2,2,1,1,3,2,1,1,3,2,2,1,2,2,3,3,3,2,2,3,2,3,2,3,3,3,3,3,2,3,2,2,2,1,2,1,2,2,2,3,3,5,5,5,4,4,6,6,6,6,6,5,6,6,5,5,5,5,5,5,5,5,5,6,5,4,6,6,4,4,4,5,5,5,5,6,6,5,5,6,5,6,6,5,5,4,4,5,6,4,4,4,4,5,5,6,4,4,4,4,4,5,5,5,5,5,5,6,6,6,4,4,5,5,5,6,6,4,4,5,4,5,5,5,5,4,4,4,4,4,4,4,4,4,6,6,4,6,5,5,5,4,4,5,5,5,5,6,6,6,5,6,5,5,5,6,6,6,6,6,6,6,5,5,5,5,4,4,4,5,5,7,4,9,4,9,6,8,4,9,6,7,4,9,6,8,4,9,6,7,5,9,4,8,7,7,9,8,8,8,7,7,8,7,9,7,8,9,9,9,7,9,9,7,9,7,8,7,9,8,8,9,9,9,9,7,9,9,8,8,9,9,8,7,8,7,7,7,8,9,9,8,8,8,8,9,9,9,8,9,8,9,9,8,9,7,7,9,9,9,8,8,7,9,8,9,7,9,7,8,8,9,9,8,7,9,9,7,8,8,9,9,8,8,8,9,9,8,8,8,8,9,9,7,9,9,9,9,9,7,7,7,7,7,7,9,9,9,7,8,8,8,8,8,8,7,7,9,7,9,8,9,7];

processingTimes = [128,48,136,80,88,152,120,136,144,136,136,160,128,88,64,112,136,168,64,104,80,136,120,136,160,104,80,128,136,168,104,104,104,128,128,112,104,136,160,48,128,120,120,136,136,104,40,104,104,48,152,160,136,136,72,64,120,112,128,80,88,112,80,136,112,64,120,56,48,112,120,56,72,112,144,120,152,112,104,104,128,64,80,152,88,104,144,136,112,104,128,104,128,120,160,160,120,128,48,136,1000,3,500,500,3,4,200,3,3,4,500,3,4,8,8,4,3,3,500,4,13,3,500,3,3,500,4,4,4,4,3,3,8,4,4,4,3,4,500,5,500,1000,5,4,4,5,4,500,13,4,100,3,4,4,500,3,4,4,3,4,500,3,3,3,13,8,3,3,1000,4,3,4,9,4,3,500,3,4,500,4,4,4,5,3,3,500,500,4,4,4,4,500,4,4,500,4,4,3,4,1000,8,8,500,3,8,8,4,4,8,3,1000,5,4,5,4,3,500,5,4,4,4,4,3,3,3,4,7,3,3,8,8,8,8,4,4,4,4,500,500,500,500,500,500,500,500,5,5,3,3,3,3,6,6,1000,3,500,500,3,4,200,3,3,4,500,3,4,8,8,4,3,3,500,4,13,3,500,3,3,500,4,4,4,4,3,3,8,4,4,4,3,4,500,5,500,1000,5,4,4,5,4,500,13,4,100,3,4,4,500,3,4,4,3,4,500,3,3,3,13,8,3,3,1000,4,3,4,9,4,3,500,3,4,500,4,4,4,5,3,3,500,500,4,4,4,4,500,4,4,500,4,4,3,4,1000,8,8,500,3,8,8,4,4,8,3,1000,5,4,5,4,3,500,5,4,4,4,4,3,3,3,4,7,3,3];

periods = [100000,10000,2000,100000,100000,10000,10000,20000,20000,100000,20000,100000,10000,2000,10000,10000,20000,100000,20000,20000,20000,20000,10000,20000,10000,100000,10000,10000,5000,10000,1000,100000,20000,5000,20000,20000,10000,20000,10000,1000,100000,100000,100000,100000,100000,20000,20000,100000,20000,20000,50000,20000,100000,20000,20000,100000,50000,20000,10000,100000,100000,50000,20000,10000,20000,20000,2000,20000,20000,100000,100000,20000,20000,10000,10000,100000,20000,20000,10000,5000,20000,20000,100000,10000,20000,5000,100000,100000,20000,20000,20000,100000,10000,20000,10000,10000,100000,20000,10000,20000,100000,100000,100000,10000,10000,2000,2000,2000,2000,2000,100000,100000,100000,10000,10000,10000,10000,10000,20000,20000,20000,20000,100000,20000,100000,10000,10000,2000,2000,2000,10000,10000,10000,10000,100000,20000,20000,20000,20000,20000,10000,10000,20000,10000,100000,100000,10000,10000,5000,5000,1000,1000,20000,5000,20000,20000,100000,100000,100000,100000,100000,100000,100000,20000,20000,20000,20000,100000,20000,20000,20000,50000,50000,50000,20000,20000,100000,100000,20000,50000,20000,100000,100000,100000,50000,50000,50000,50000,50000,20000,20000,20000,20000,10000,10000,20000,20000,20000,20000,100000,100000,100000,20000,20000,20000,20000,10000,10000,100000,20000,10000,5000,5000,20000,100000,100000,100000,100000,100000,20000,20000,100000,100000,100000,20000,10000,10000,10000,100000,10000,10000,100000,100000,10000,10000,10000,10000,20000,20000,20000,20000,20000,20000,20000,20000,100000,100000,100000,100000,10000,10000,1000,1000,100000,100000,100000,10000,10000,2000,2000,2000,2000,2000,100000,100000,100000,10000,10000,10000,10000,10000,20000,20000,20000,20000,100000,20000,100000,10000,10000,2000,2000,2000,10000,10000,10000,10000,100000,20000,20000,20000,20000,20000,10000,10000,20000,10000,100000,100000,10000,10000,5000,5000,1000,1000,20000,5000,20000,20000,100000,100000,100000,100000,100000,100000,100000,20000,20000,20000,20000,100000,20000,20000,20000,50000,50000,50000,20000,20000,100000,100000,20000,50000,20000,100000,100000,100000,50000,50000,50000,50000,50000,20000,20000,20000,20000,10000,10000,20000,20000,20000,20000,100000,100000,100000,20000,20000,20000,20000,10000,10000,100000,20000,10000,5000,5000,20000,100000,100000,100000,100000,100000,20000,20000,100000,100000,100000,20000,10000,10000,10000,100000];

assignmentToClusters = [1,2,3,4,5,6,7,8,9,10,11,12,13,14,15,2,16,5,17,18,19,20,21,22,23,24,25,26,27,28,29,30,31,32,33,34,35,36,37,29,24,30,24,38,5,39,40,30,41,17,42,43,10,17,44,30,45,46,47,48,48,49,50,51,52,53,54,17,55,48,24,56,57,47,58,30,59,60,61,62,63,17,64,25,65,66,30,67,17,68,69,48,13,70,71,13,72,73,74,36,75,76,77,78,79,80,81,82,83,84,85,86,87,88,89,90,91,92,93,94,95,96,97,98,99,100,101,102,103,104,105,106,107,108,109,110,111,112,113,114,115,116,117,118,119,120,121,122,123,124,125,126,127,128,129,130,131,132,133,134,135,136,137,138,139,140,141,142,143,144,145,146,147,148,149,150,151,152,153,154,155,156,157,158,159,160,161,162,163,164,165,166,167,168,169,170,171,172,173,174,175,176,177,178,179,180,181,182,183,184,185,186,187,188,189,190,191,192,193,194,195,196,197,198,199,200,201,202,203,2,2,10,10,13,13,13,13,17,17,17,17,17,17,17,17,24,24,24,24,25,25,29,29,75,76,77,78,79,80,81,82,83,84,85,86,87,88,89,90,91,92,93,94,95,96,97,98,99,100,101,102,103,104,105,106,107,108,109,110,111,112,113,114,115,116,117,118,119,120,121,122,123,124,125,126,127,128,129,130,131,132,133,134,135,136,137,138,139,140,141,142,143,144,145,146,147,148,149,150,151,152,153,154,155,156,157,158,159,160,161,162,163,164,165,166,167,168,169,170,171,172,173,174,175,176,177,178,179,180,181,182,183,184,185,186,187,188,189,190,191,192,193,194,195,196,197,198,199,200,201,202,203];

precedenceAdjList = [[],[230],[],[],[17],[],[],[],[],[232],[],[],[234],[],[],[],[],[44],[238],[],[],[],[],[],[],[70],[],[],[],[],[],[75],[],[],[],[],[],[],[],[252],[248],[31],[246],[],[],[],[],[],[],[],[],[],[],[240],[],[75],[],[],[],[],[],[],[],[],[],[],[],[],[],[60,59],[],[],[],[58],[],[47],[],[],[],[],[],[244],[],[250],[],[],[55],[],[18,242],[],[],[69],[],[],[],[236],[],[],[],[37],[],[],[],[],[],[],[],[],[],[],[],[],[],[],[],[],[],[],[],[],[],[],[],[],[],[],[],[],[],[],[],[],[],[],[],[],[],[],[],[],[],[],[],[],[],[],[],[],[],[],[],[],[],[],[],[],[],[],[],[],[],[],[],[],[],[],[],[],[],[],[],[],[],[],[],[],[],[],[],[],[],[],[],[],[],[],[],[],[],[],[],[],[],[],[],[],[],[],[],[],[],[],[],[],[],[],[],[],[],[],[],[],[],[],[],[],[],[],[],[],[],[],[],[],[],[],[],[],[],[15],[229],[52],[231],[92],[233],[12],[235],[53],[237],[67],[239],[49],[241],[88],[243],[25],[245],[42],[247],[26],[249],[30],[251],[100],[101],[102],[103],[104],[105],[106],[107],[108],[109],[110],[111],[112],[113],[114],[115],[116],[117],[118],[119],[120],[121],[122],[123],[124],[125],[126],[127],[128],[129],[130],[131],[132],[133],[134],[135],[136],[137],[138],[139],[140],[141],[142],[143],[144],[145],[146],[147],[148],[149],[150],[151],[152],[153],[154],[155],[156],[157],[158],[159],[160],[161],[162],[163],[164],[165],[166],[167],[168],[169],[170],[171],[172],[173],[174],[175],[176],[177],[178],[179],[180],[181],[182],[183],[184],[185],[186],[187],[188],[189],[190],[191],[192],[193],[194],[195],[196],[197],[198],[199],[200],[201],[202],[203],[204],[205],[206],[207],[208],[209],[210],[211],[212],[213],[214],[215],[216],[217],[218],[219],[220],[221],[222],[223],[224],[225],[226],[227],[228]];